41
71
55
16
22
66
63
46
99
3
18
1
89
97
43
2
51
61
82
26
62
96
27
19
98
85
28
73
36
14
94
81
48
74
39
68
57
17
32
90
78
49
29
75
80
9
72
60
5
35
52
50
54
44
24
37
38
31
4
25
92
64
47
69
58
33
7
23
88
56
84
91
86
20
53
0
42
79
6
45
83
8
40
77
65
11
95
59
15
10
21
87
67
13
34
76
12
70
30
93
